p cnf 120 2269
1 2 3 0
4 5 6 0
7 8 9 0
10 11 12 0
13 14 15 0
16 17 18 0
19 20 21 0
22 23 24 0
25 26 27 0
28 29 30 0
31 32 33 0
34 35 36 0
37 38 39 0
40 41 42 0
43 44 45 0
46 47 48 0
49 50 51 0
52 53 54 0
55 56 57 0
58 59 60 0
61 62 63 0
64 65 66 0
67 68 69 0
70 71 72 0
73 74 75 0
76 77 78 0
79 80 81 0
82 83 84 0
85 86 87 0
88 89 90 0
91 92 93 0
94 95 96 0
97 98 99 0
100 101 102 0
103 104 105 0
106 107 108 0
109 110 111 0
112 113 114 0
115 116 117 0
118 119 120 0
-1 -2 0
-1 -3 0
-2 -3 0
-4 -5 0
-4 -6 0
-5 -6 0
-7 -8 0
-7 -9 0
-8 -9 0
-10 -11 0
-10 -12 0
-11 -12 0
-13 -14 0
-13 -15 0
-14 -15 0
-16 -17 0
-16 -18 0
-17 -18 0
-19 -20 0
-19 -21 0
-20 -21 0
-22 -23 0
-22 -24 0
-23 -24 0
-25 -26 0
-25 -27 0
-26 -27 0
-28 -29 0
-28 -30 0
-29 -30 0
-31 -32 0
-31 -33 0
-32 -33 0
-34 -35 0
-34 -36 0
-35 -36 0
-37 -38 0
-37 -39 0
-38 -39 0
-40 -41 0
-40 -42 0
-41 -42 0
-43 -44 0
-43 -45 0
-44 -45 0
-46 -47 0
-46 -48 0
-47 -48 0
-49 -50 0
-49 -51 0
-50 -51 0
-52 -53 0
-52 -54 0
-53 -54 0
-55 -56 0
-55 -57 0
-56 -57 0
-58 -59 0
-58 -60 0
-59 -60 0
-61 -62 0
-61 -63 0
-62 -63 0
-64 -65 0
-64 -66 0
-65 -66 0
-67 -68 0
-67 -69 0
-68 -69 0
-70 -71 0
-70 -72 0
-71 -72 0
-73 -74 0
-73 -75 0
-74 -75 0
-76 -77 0
-76 -78 0
-77 -78 0
-79 -80 0
-79 -81 0
-80 -81 0
-82 -83 0
-82 -84 0
-83 -84 0
-85 -86 0
-85 -87 0
-86 -87 0
-88 -89 0
-88 -90 0
-89 -90 0
-91 -92 0
-91 -93 0
-92 -93 0
-94 -95 0
-94 -96 0
-95 -96 0
-97 -98 0
-97 -99 0
-98 -99 0
-100 -101 0
-100 -102 0
-101 -102 0
-103 -104 0
-103 -105 0
-104 -105 0
-106 -107 0
-106 -108 0
-107 -108 0
-109 -110 0
-109 -111 0
-110 -111 0
-112 -113 0
-112 -114 0
-113 -114 0
-115 -116 0
-115 -117 0
-116 -117 0
-118 -119 0
-118 -120 0
-119 -120 0
-1 -1 -10 0
-2 -2 -11 0
-3 -3 -12 0
-1 -4 -13 0
-2 -5 -14 0
-3 -6 -15 0
-1 -7 -16 0
-2 -8 -17 0
-3 -9 -18 0
-1 -10 -19 0
-2 -11 -20 0
-3 -12 -21 0
-1 -13 -22 0
-2 -14 -23 0
-3 -15 -24 0
-1 -16 -25 0
-2 -17 -26 0
-3 -18 -27 0
-1 -19 -28 0
-2 -20 -29 0
-3 -21 -30 0
-1 -22 -31 0
-2 -23 -32 0
-3 -24 -33 0
-1 -25 -34 0
-2 -26 -35 0
-3 -27 -36 0
-1 -28 -37 0
-2 -29 -38 0
-3 -30 -39 0
-1 -31 -40 0
-2 -32 -41 0
-3 -33 -42 0
-1 -34 -43 0
-2 -35 -44 0
-3 -36 -45 0
-1 -37 -46 0
-2 -38 -47 0
-3 -39 -48 0
-1 -40 -49 0
-2 -41 -50 0
-3 -42 -51 0
-1 -43 -52 0
-2 -44 -53 0
-3 -45 -54 0
-1 -46 -55 0
-2 -47 -56 0
-3 -48 -57 0
-1 -49 -58 0
-2 -50 -59 0
-3 -51 -60 0
-1 -52 -61 0
-2 -53 -62 0
-3 -54 -63 0
-1 -55 -64 0
-2 -56 -65 0
-3 -57 -66 0
-1 -58 -67 0
-2 -59 -68 0
-3 -60 -69 0
-1 -61 -70 0
-2 -62 -71 0
-3 -63 -72 0
-1 -64 -73 0
-2 -65 -74 0
-3 -66 -75 0
-1 -67 -76 0
-2 -68 -77 0
-3 -69 -78 0
-1 -70 -79 0
-2 -71 -80 0
-3 -72 -81 0
-1 -73 -82 0
-2 -74 -83 0
-3 -75 -84 0
-1 -76 -85 0
-2 -77 -86 0
-3 -78 -87 0
-1 -79 -88 0
-2 -80 -89 0
-3 -81 -90 0
-1 -82 -91 0
-2 -83 -92 0
-3 -84 -93 0
-1 -85 -94 0
-2 -86 -95 0
-3 -87 -96 0
-1 -88 -97 0
-2 -89 -98 0
-3 -90 -99 0
-1 -91 -100 0
-2 -92 -101 0
-3 -93 -102 0
-1 -94 -103 0
-2 -95 -104 0
-3 -96 -105 0
-1 -97 -106 0
-2 -98 -107 0
-3 -99 -108 0
-1 -100 -109 0
-2 -101 -110 0
-3 -102 -111 0
-1 -103 -112 0
-2 -104 -113 0
-3 -105 -114 0
-1 -106 -115 0
-2 -107 -116 0
-3 -108 -117 0
-1 -109 -118 0
-2 -110 -119 0
-3 -111 -120 0
-4 -1 -13 0
-5 -2 -14 0
-6 -3 -15 0
-4 -4 -16 0
-5 -5 -17 0
-6 -6 -18 0
-4 -7 -19 0
-5 -8 -20 0
-6 -9 -21 0
-4 -10 -22 0
-5 -11 -23 0
-6 -12 -24 0
-4 -13 -25 0
-5 -14 -26 0
-6 -15 -27 0
-4 -16 -28 0
-5 -17 -29 0
-6 -18 -30 0
-4 -19 -31 0
-5 -20 -32 0
-6 -21 -33 0
-4 -22 -34 0
-5 -23 -35 0
-6 -24 -36 0
-4 -25 -37 0
-5 -26 -38 0
-6 -27 -39 0
-4 -28 -40 0
-5 -29 -41 0
-6 -30 -42 0
-4 -31 -43 0
-5 -32 -44 0
-6 -33 -45 0
-4 -34 -46 0
-5 -35 -47 0
-6 -36 -48 0
-4 -37 -49 0
-5 -38 -50 0
-6 -39 -51 0
-4 -40 -52 0
-5 -41 -53 0
-6 -42 -54 0
-4 -43 -55 0
-5 -44 -56 0
-6 -45 -57 0
-4 -46 -58 0
-5 -47 -59 0
-6 -48 -60 0
-4 -49 -61 0
-5 -50 -62 0
-6 -51 -63 0
-4 -52 -64 0
-5 -53 -65 0
-6 -54 -66 0
-4 -55 -67 0
-5 -56 -68 0
-6 -57 -69 0
-4 -58 -70 0
-5 -59 -71 0
-6 -60 -72 0
-4 -61 -73 0
-5 -62 -74 0
-6 -63 -75 0
-4 -64 -76 0
-5 -65 -77 0
-6 -66 -78 0
-4 -67 -79 0
-5 -68 -80 0
-6 -69 -81 0
-4 -70 -82 0
-5 -71 -83 0
-6 -72 -84 0
-4 -73 -85 0
-5 -74 -86 0
-6 -75 -87 0
-4 -76 -88 0
-5 -77 -89 0
-6 -78 -90 0
-4 -79 -91 0
-5 -80 -92 0
-6 -81 -93 0
-4 -82 -94 0
-5 -83 -95 0
-6 -84 -96 0
-4 -85 -97 0
-5 -86 -98 0
-6 -87 -99 0
-4 -88 -100 0
-5 -89 -101 0
-6 -90 -102 0
-4 -91 -103 0
-5 -92 -104 0
-6 -93 -105 0
-4 -94 -106 0
-5 -95 -107 0
-6 -96 -108 0
-4 -97 -109 0
-5 -98 -110 0
-6 -99 -111 0
-4 -100 -112 0
-5 -101 -113 0
-6 -102 -114 0
-4 -103 -115 0
-5 -104 -116 0
-6 -105 -117 0
-4 -106 -118 0
-5 -107 -119 0
-6 -108 -120 0
-7 -1 -16 0
-8 -2 -17 0
-9 -3 -18 0
-7 -4 -19 0
-8 -5 -20 0
-9 -6 -21 0
-7 -7 -22 0
-8 -8 -23 0
-9 -9 -24 0
-7 -10 -25 0
-8 -11 -26 0
-9 -12 -27 0
-7 -13 -28 0
-8 -14 -29 0
-9 -15 -30 0
-7 -16 -31 0
-8 -17 -32 0
-9 -18 -33 0
-7 -19 -34 0
-8 -20 -35 0
-9 -21 -36 0
-7 -22 -37 0
-8 -23 -38 0
-9 -24 -39 0
-7 -25 -40 0
-8 -26 -41 0
-9 -27 -42 0
-7 -28 -43 0
-8 -29 -44 0
-9 -30 -45 0
-7 -31 -46 0
-8 -32 -47 0
-9 -33 -48 0
-7 -34 -49 0
-8 -35 -50 0
-9 -36 -51 0
-7 -37 -52 0
-8 -38 -53 0
-9 -39 -54 0
-7 -40 -55 0
-8 -41 -56 0
-9 -42 -57 0
-7 -43 -58 0
-8 -44 -59 0
-9 -45 -60 0
-7 -46 -61 0
-8 -47 -62 0
-9 -48 -63 0
-7 -49 -64 0
-8 -50 -65 0
-9 -51 -66 0
-7 -52 -67 0
-8 -53 -68 0
-9 -54 -69 0
-7 -55 -70 0
-8 -56 -71 0
-9 -57 -72 0
-7 -58 -73 0
-8 -59 -74 0
-9 -60 -75 0
-7 -61 -76 0
-8 -62 -77 0
-9 -63 -78 0
-7 -64 -79 0
-8 -65 -80 0
-9 -66 -81 0
-7 -67 -82 0
-8 -68 -83 0
-9 -69 -84 0
-7 -70 -85 0
-8 -71 -86 0
-9 -72 -87 0
-7 -73 -88 0
-8 -74 -89 0
-9 -75 -90 0
-7 -76 -91 0
-8 -77 -92 0
-9 -78 -93 0
-7 -79 -94 0
-8 -80 -95 0
-9 -81 -96 0
-7 -82 -97 0
-8 -83 -98 0
-9 -84 -99 0
-7 -85 -100 0
-8 -86 -101 0
-9 -87 -102 0
-7 -88 -103 0
-8 -89 -104 0
-9 -90 -105 0
-7 -91 -106 0
-8 -92 -107 0
-9 -93 -108 0
-7 -94 -109 0
-8 -95 -110 0
-9 -96 -111 0
-7 -97 -112 0
-8 -98 -113 0
-9 -99 -114 0
-7 -100 -115 0
-8 -101 -116 0
-9 -102 -117 0
-7 -103 -118 0
-8 -104 -119 0
-9 -105 -120 0
-10 -1 -19 0
-11 -2 -20 0
-12 -3 -21 0
-10 -4 -22 0
-11 -5 -23 0
-12 -6 -24 0
-10 -7 -25 0
-11 -8 -26 0
-12 -9 -27 0
-10 -10 -28 0
-11 -11 -29 0
-12 -12 -30 0
-10 -13 -31 0
-11 -14 -32 0
-12 -15 -33 0
-10 -16 -34 0
-11 -17 -35 0
-12 -18 -36 0
-10 -19 -37 0
-11 -20 -38 0
-12 -21 -39 0
-10 -22 -40 0
-11 -23 -41 0
-12 -24 -42 0
-10 -25 -43 0
-11 -26 -44 0
-12 -27 -45 0
-10 -28 -46 0
-11 -29 -47 0
-12 -30 -48 0
-10 -31 -49 0
-11 -32 -50 0
-12 -33 -51 0
-10 -34 -52 0
-11 -35 -53 0
-12 -36 -54 0
-10 -37 -55 0
-11 -38 -56 0
-12 -39 -57 0
-10 -40 -58 0
-11 -41 -59 0
-12 -42 -60 0
-10 -43 -61 0
-11 -44 -62 0
-12 -45 -63 0
-10 -46 -64 0
-11 -47 -65 0
-12 -48 -66 0
-10 -49 -67 0
-11 -50 -68 0
-12 -51 -69 0
-10 -52 -70 0
-11 -53 -71 0
-12 -54 -72 0
-10 -55 -73 0
-11 -56 -74 0
-12 -57 -75 0
-10 -58 -76 0
-11 -59 -77 0
-12 -60 -78 0
-10 -61 -79 0
-11 -62 -80 0
-12 -63 -81 0
-10 -64 -82 0
-11 -65 -83 0
-12 -66 -84 0
-10 -67 -85 0
-11 -68 -86 0
-12 -69 -87 0
-10 -70 -88 0
-11 -71 -89 0
-12 -72 -90 0
-10 -73 -91 0
-11 -74 -92 0
-12 -75 -93 0
-10 -76 -94 0
-11 -77 -95 0
-12 -78 -96 0
-10 -79 -97 0
-11 -80 -98 0
-12 -81 -99 0
-10 -82 -100 0
-11 -83 -101 0
-12 -84 -102 0
-10 -85 -103 0
-11 -86 -104 0
-12 -87 -105 0
-10 -88 -106 0
-11 -89 -107 0
-12 -90 -108 0
-10 -91 -109 0
-11 -92 -110 0
-12 -93 -111 0
-10 -94 -112 0
-11 -95 -113 0
-12 -96 -114 0
-10 -97 -115 0
-11 -98 -116 0
-12 -99 -117 0
-10 -100 -118 0
-11 -101 -119 0
-12 -102 -120 0
-13 -1 -22 0
-14 -2 -23 0
-15 -3 -24 0
-13 -4 -25 0
-14 -5 -26 0
-15 -6 -27 0
-13 -7 -28 0
-14 -8 -29 0
-15 -9 -30 0
-13 -10 -31 0
-14 -11 -32 0
-15 -12 -33 0
-13 -13 -34 0
-14 -14 -35 0
-15 -15 -36 0
-13 -16 -37 0
-14 -17 -38 0
-15 -18 -39 0
-13 -19 -40 0
-14 -20 -41 0
-15 -21 -42 0
-13 -22 -43 0
-14 -23 -44 0
-15 -24 -45 0
-13 -25 -46 0
-14 -26 -47 0
-15 -27 -48 0
-13 -28 -49 0
-14 -29 -50 0
-15 -30 -51 0
-13 -31 -52 0
-14 -32 -53 0
-15 -33 -54 0
-13 -34 -55 0
-14 -35 -56 0
-15 -36 -57 0
-13 -37 -58 0
-14 -38 -59 0
-15 -39 -60 0
-13 -40 -61 0
-14 -41 -62 0
-15 -42 -63 0
-13 -43 -64 0
-14 -44 -65 0
-15 -45 -66 0
-13 -46 -67 0
-14 -47 -68 0
-15 -48 -69 0
-13 -49 -70 0
-14 -50 -71 0
-15 -51 -72 0
-13 -52 -73 0
-14 -53 -74 0
-15 -54 -75 0
-13 -55 -76 0
-14 -56 -77 0
-15 -57 -78 0
-13 -58 -79 0
-14 -59 -80 0
-15 -60 -81 0
-13 -61 -82 0
-14 -62 -83 0
-15 -63 -84 0
-13 -64 -85 0
-14 -65 -86 0
-15 -66 -87 0
-13 -67 -88 0
-14 -68 -89 0
-15 -69 -90 0
-13 -70 -91 0
-14 -71 -92 0
-15 -72 -93 0
-13 -73 -94 0
-14 -74 -95 0
-15 -75 -96 0
-13 -76 -97 0
-14 -77 -98 0
-15 -78 -99 0
-13 -79 -100 0
-14 -80 -101 0
-15 -81 -102 0
-13 -82 -103 0
-14 -83 -104 0
-15 -84 -105 0
-13 -85 -106 0
-14 -86 -107 0
-15 -87 -108 0
-13 -88 -109 0
-14 -89 -110 0
-15 -90 -111 0
-13 -91 -112 0
-14 -92 -113 0
-15 -93 -114 0
-13 -94 -115 0
-14 -95 -116 0
-15 -96 -117 0
-13 -97 -118 0
-14 -98 -119 0
-15 -99 -120 0
-16 -1 -25 0
-17 -2 -26 0
-18 -3 -27 0
-16 -4 -28 0
-17 -5 -29 0
-18 -6 -30 0
-16 -7 -31 0
-17 -8 -32 0
-18 -9 -33 0
-16 -10 -34 0
-17 -11 -35 0
-18 -12 -36 0
-16 -13 -37 0
-17 -14 -38 0
-18 -15 -39 0
-16 -16 -40 0
-17 -17 -41 0
-18 -18 -42 0
-16 -19 -43 0
-17 -20 -44 0
-18 -21 -45 0
-16 -22 -46 0
-17 -23 -47 0
-18 -24 -48 0
-16 -25 -49 0
-17 -26 -50 0
-18 -27 -51 0
-16 -28 -52 0
-17 -29 -53 0
-18 -30 -54 0
-16 -31 -55 0
-17 -32 -56 0
-18 -33 -57 0
-16 -34 -58 0
-17 -35 -59 0
-18 -36 -60 0
-16 -37 -61 0
-17 -38 -62 0
-18 -39 -63 0
-16 -40 -64 0
-17 -41 -65 0
-18 -42 -66 0
-16 -43 -67 0
-17 -44 -68 0
-18 -45 -69 0
-16 -46 -70 0
-17 -47 -71 0
-18 -48 -72 0
-16 -49 -73 0
-17 -50 -74 0
-18 -51 -75 0
-16 -52 -76 0
-17 -53 -77 0
-18 -54 -78 0
-16 -55 -79 0
-17 -56 -80 0
-18 -57 -81 0
-16 -58 -82 0
-17 -59 -83 0
-18 -60 -84 0
-16 -61 -85 0
-17 -62 -86 0
-18 -63 -87 0
-16 -64 -88 0
-17 -65 -89 0
-18 -66 -90 0
-16 -67 -91 0
-17 -68 -92 0
-18 -69 -93 0
-16 -70 -94 0
-17 -71 -95 0
-18 -72 -96 0
-16 -73 -97 0
-17 -74 -98 0
-18 -75 -99 0
-16 -76 -100 0
-17 -77 -101 0
-18 -78 -102 0
-16 -79 -103 0
-17 -80 -104 0
-18 -81 -105 0
-16 -82 -106 0
-17 -83 -107 0
-18 -84 -108 0
-16 -85 -109 0
-17 -86 -110 0
-18 -87 -111 0
-16 -88 -112 0
-17 -89 -113 0
-18 -90 -114 0
-16 -91 -115 0
-17 -92 -116 0
-18 -93 -117 0
-16 -94 -118 0
-17 -95 -119 0
-18 -96 -120 0
-19 -1 -28 0
-20 -2 -29 0
-21 -3 -30 0
-19 -4 -31 0
-20 -5 -32 0
-21 -6 -33 0
-19 -7 -34 0
-20 -8 -35 0
-21 -9 -36 0
-19 -10 -37 0
-20 -11 -38 0
-21 -12 -39 0
-19 -13 -40 0
-20 -14 -41 0
-21 -15 -42 0
-19 -16 -43 0
-20 -17 -44 0
-21 -18 -45 0
-19 -19 -46 0
-20 -20 -47 0
-21 -21 -48 0
-19 -22 -49 0
-20 -23 -50 0
-21 -24 -51 0
-19 -25 -52 0
-20 -26 -53 0
-21 -27 -54 0
-19 -28 -55 0
-20 -29 -56 0
-21 -30 -57 0
-19 -31 -58 0
-20 -32 -59 0
-21 -33 -60 0
-19 -34 -61 0
-20 -35 -62 0
-21 -36 -63 0
-19 -37 -64 0
-20 -38 -65 0
-21 -39 -66 0
-19 -40 -67 0
-20 -41 -68 0
-21 -42 -69 0
-19 -43 -70 0
-20 -44 -71 0
-21 -45 -72 0
-19 -46 -73 0
-20 -47 -74 0
-21 -48 -75 0
-19 -49 -76 0
-20 -50 -77 0
-21 -51 -78 0
-19 -52 -79 0
-20 -53 -80 0
-21 -54 -81 0
-19 -55 -82 0
-20 -56 -83 0
-21 -57 -84 0
-19 -58 -85 0
-20 -59 -86 0
-21 -60 -87 0
-19 -61 -88 0
-20 -62 -89 0
-21 -63 -90 0
-19 -64 -91 0
-20 -65 -92 0
-21 -66 -93 0
-19 -67 -94 0
-20 -68 -95 0
-21 -69 -96 0
-19 -70 -97 0
-20 -71 -98 0
-21 -72 -99 0
-19 -73 -100 0
-20 -74 -101 0
-21 -75 -102 0
-19 -76 -103 0
-20 -77 -104 0
-21 -78 -105 0
-19 -79 -106 0
-20 -80 -107 0
-21 -81 -108 0
-19 -82 -109 0
-20 -83 -110 0
-21 -84 -111 0
-19 -85 -112 0
-20 -86 -113 0
-21 -87 -114 0
-19 -88 -115 0
-20 -89 -116 0
-21 -90 -117 0
-19 -91 -118 0
-20 -92 -119 0
-21 -93 -120 0
-22 -1 -31 0
-23 -2 -32 0
-24 -3 -33 0
-22 -4 -34 0
-23 -5 -35 0
-24 -6 -36 0
-22 -7 -37 0
-23 -8 -38 0
-24 -9 -39 0
-22 -10 -40 0
-23 -11 -41 0
-24 -12 -42 0
-22 -13 -43 0
-23 -14 -44 0
-24 -15 -45 0
-22 -16 -46 0
-23 -17 -47 0
-24 -18 -48 0
-22 -19 -49 0
-23 -20 -50 0
-24 -21 -51 0
-22 -22 -52 0
-23 -23 -53 0
-24 -24 -54 0
-22 -25 -55 0
-23 -26 -56 0
-24 -27 -57 0
-22 -28 -58 0
-23 -29 -59 0
-24 -30 -60 0
-22 -31 -61 0
-23 -32 -62 0
-24 -33 -63 0
-22 -34 -64 0
-23 -35 -65 0
-24 -36 -66 0
-22 -37 -67 0
-23 -38 -68 0
-24 -39 -69 0
-22 -40 -70 0
-23 -41 -71 0
-24 -42 -72 0
-22 -43 -73 0
-23 -44 -74 0
-24 -45 -75 0
-22 -46 -76 0
-23 -47 -77 0
-24 -48 -78 0
-22 -49 -79 0
-23 -50 -80 0
-24 -51 -81 0
-22 -52 -82 0
-23 -53 -83 0
-24 -54 -84 0
-22 -55 -85 0
-23 -56 -86 0
-24 -57 -87 0
-22 -58 -88 0
-23 -59 -89 0
-24 -60 -90 0
-22 -61 -91 0
-23 -62 -92 0
-24 -63 -93 0
-22 -64 -94 0
-23 -65 -95 0
-24 -66 -96 0
-22 -67 -97 0
-23 -68 -98 0
-24 -69 -99 0
-22 -70 -100 0
-23 -71 -101 0
-24 -72 -102 0
-22 -73 -103 0
-23 -74 -104 0
-24 -75 -105 0
-22 -76 -106 0
-23 -77 -107 0
-24 -78 -108 0
-22 -79 -109 0
-23 -80 -110 0
-24 -81 -111 0
-22 -82 -112 0
-23 -83 -113 0
-24 -84 -114 0
-22 -85 -115 0
-23 -86 -116 0
-24 -87 -117 0
-22 -88 -118 0
-23 -89 -119 0
-24 -90 -120 0
-25 -1 -34 0
-26 -2 -35 0
-27 -3 -36 0
-25 -4 -37 0
-26 -5 -38 0
-27 -6 -39 0
-25 -7 -40 0
-26 -8 -41 0
-27 -9 -42 0
-25 -10 -43 0
-26 -11 -44 0
-27 -12 -45 0
-25 -13 -46 0
-26 -14 -47 0
-27 -15 -48 0
-25 -16 -49 0
-26 -17 -50 0
-27 -18 -51 0
-25 -19 -52 0
-26 -20 -53 0
-27 -21 -54 0
-25 -22 -55 0
-26 -23 -56 0
-27 -24 -57 0
-25 -25 -58 0
-26 -26 -59 0
-27 -27 -60 0
-25 -28 -61 0
-26 -29 -62 0
-27 -30 -63 0
-25 -31 -64 0
-26 -32 -65 0
-27 -33 -66 0
-25 -34 -67 0
-26 -35 -68 0
-27 -36 -69 0
-25 -37 -70 0
-26 -38 -71 0
-27 -39 -72 0
-25 -40 -73 0
-26 -41 -74 0
-27 -42 -75 0
-25 -43 -76 0
-26 -44 -77 0
-27 -45 -78 0
-25 -46 -79 0
-26 -47 -80 0
-27 -48 -81 0
-25 -49 -82 0
-26 -50 -83 0
-27 -51 -84 0
-25 -52 -85 0
-26 -53 -86 0
-27 -54 -87 0
-25 -55 -88 0
-26 -56 -89 0
-27 -57 -90 0
-25 -58 -91 0
-26 -59 -92 0
-27 -60 -93 0
-25 -61 -94 0
-26 -62 -95 0
-27 -63 -96 0
-25 -64 -97 0
-26 -65 -98 0
-27 -66 -99 0
-25 -67 -100 0
-26 -68 -101 0
-27 -69 -102 0
-25 -70 -103 0
-26 -71 -104 0
-27 -72 -105 0
-25 -73 -106 0
-26 -74 -107 0
-27 -75 -108 0
-25 -76 -109 0
-26 -77 -110 0
-27 -78 -111 0
-25 -79 -112 0
-26 -80 -113 0
-27 -81 -114 0
-25 -82 -115 0
-26 -83 -116 0
-27 -84 -117 0
-25 -85 -118 0
-26 -86 -119 0
-27 -87 -120 0
-28 -1 -37 0
-29 -2 -38 0
-30 -3 -39 0
-28 -4 -40 0
-29 -5 -41 0
-30 -6 -42 0
-28 -7 -43 0
-29 -8 -44 0
-30 -9 -45 0
-28 -10 -46 0
-29 -11 -47 0
-30 -12 -48 0
-28 -13 -49 0
-29 -14 -50 0
-30 -15 -51 0
-28 -16 -52 0
-29 -17 -53 0
-30 -18 -54 0
-28 -19 -55 0
-29 -20 -56 0
-30 -21 -57 0
-28 -22 -58 0
-29 -23 -59 0
-30 -24 -60 0
-28 -25 -61 0
-29 -26 -62 0
-30 -27 -63 0
-28 -28 -64 0
-29 -29 -65 0
-30 -30 -66 0
-28 -31 -67 0
-29 -32 -68 0
-30 -33 -69 0
-28 -34 -70 0
-29 -35 -71 0
-30 -36 -72 0
-28 -37 -73 0
-29 -38 -74 0
-30 -39 -75 0
-28 -40 -76 0
-29 -41 -77 0
-30 -42 -78 0
-28 -43 -79 0
-29 -44 -80 0
-30 -45 -81 0
-28 -46 -82 0
-29 -47 -83 0
-30 -48 -84 0
-28 -49 -85 0
-29 -50 -86 0
-30 -51 -87 0
-28 -52 -88 0
-29 -53 -89 0
-30 -54 -90 0
-28 -55 -91 0
-29 -56 -92 0
-30 -57 -93 0
-28 -58 -94 0
-29 -59 -95 0
-30 -60 -96 0
-28 -61 -97 0
-29 -62 -98 0
-30 -63 -99 0
-28 -64 -100 0
-29 -65 -101 0
-30 -66 -102 0
-28 -67 -103 0
-29 -68 -104 0
-30 -69 -105 0
-28 -70 -106 0
-29 -71 -107 0
-30 -72 -108 0
-28 -73 -109 0
-29 -74 -110 0
-30 -75 -111 0
-28 -76 -112 0
-29 -77 -113 0
-30 -78 -114 0
-28 -79 -115 0
-29 -80 -116 0
-30 -81 -117 0
-28 -82 -118 0
-29 -83 -119 0
-30 -84 -120 0
-31 -1 -40 0
-32 -2 -41 0
-33 -3 -42 0
-31 -4 -43 0
-32 -5 -44 0
-33 -6 -45 0
-31 -7 -46 0
-32 -8 -47 0
-33 -9 -48 0
-31 -10 -49 0
-32 -11 -50 0
-33 -12 -51 0
-31 -13 -52 0
-32 -14 -53 0
-33 -15 -54 0
-31 -16 -55 0
-32 -17 -56 0
-33 -18 -57 0
-31 -19 -58 0
-32 -20 -59 0
-33 -21 -60 0
-31 -22 -61 0
-32 -23 -62 0
-33 -24 -63 0
-31 -25 -64 0
-32 -26 -65 0
-33 -27 -66 0
-31 -28 -67 0
-32 -29 -68 0
-33 -30 -69 0
-31 -31 -70 0
-32 -32 -71 0
-33 -33 -72 0
-31 -34 -73 0
-32 -35 -74 0
-33 -36 -75 0
-31 -37 -76 0
-32 -38 -77 0
-33 -39 -78 0
-31 -40 -79 0
-32 -41 -80 0
-33 -42 -81 0
-31 -43 -82 0
-32 -44 -83 0
-33 -45 -84 0
-31 -46 -85 0
-32 -47 -86 0
-33 -48 -87 0
-31 -49 -88 0
-32 -50 -89 0
-33 -51 -90 0
-31 -52 -91 0
-32 -53 -92 0
-33 -54 -93 0
-31 -55 -94 0
-32 -56 -95 0
-33 -57 -96 0
-31 -58 -97 0
-32 -59 -98 0
-33 -60 -99 0
-31 -61 -100 0
-32 -62 -101 0
-33 -63 -102 0
-31 -64 -103 0
-32 -65 -104 0
-33 -66 -105 0
-31 -67 -106 0
-32 -68 -107 0
-33 -69 -108 0
-31 -70 -109 0
-32 -71 -110 0
-33 -72 -111 0
-31 -73 -112 0
-32 -74 -113 0
-33 -75 -114 0
-31 -76 -115 0
-32 -77 -116 0
-33 -78 -117 0
-31 -79 -118 0
-32 -80 -119 0
-33 -81 -120 0
-34 -1 -43 0
-35 -2 -44 0
-36 -3 -45 0
-34 -4 -46 0
-35 -5 -47 0
-36 -6 -48 0
-34 -7 -49 0
-35 -8 -50 0
-36 -9 -51 0
-34 -10 -52 0
-35 -11 -53 0
-36 -12 -54 0
-34 -13 -55 0
-35 -14 -56 0
-36 -15 -57 0
-34 -16 -58 0
-35 -17 -59 0
-36 -18 -60 0
-34 -19 -61 0
-35 -20 -62 0
-36 -21 -63 0
-34 -22 -64 0
-35 -23 -65 0
-36 -24 -66 0
-34 -25 -67 0
-35 -26 -68 0
-36 -27 -69 0
-34 -28 -70 0
-35 -29 -71 0
-36 -30 -72 0
-34 -31 -73 0
-35 -32 -74 0
-36 -33 -75 0
-34 -34 -76 0
-35 -35 -77 0
-36 -36 -78 0
-34 -37 -79 0
-35 -38 -80 0
-36 -39 -81 0
-34 -40 -82 0
-35 -41 -83 0
-36 -42 -84 0
-34 -43 -85 0
-35 -44 -86 0
-36 -45 -87 0
-34 -46 -88 0
-35 -47 -89 0
-36 -48 -90 0
-34 -49 -91 0
-35 -50 -92 0
-36 -51 -93 0
-34 -52 -94 0
-35 -53 -95 0
-36 -54 -96 0
-34 -55 -97 0
-35 -56 -98 0
-36 -57 -99 0
-34 -58 -100 0
-35 -59 -101 0
-36 -60 -102 0
-34 -61 -103 0
-35 -62 -104 0
-36 -63 -105 0
-34 -64 -106 0
-35 -65 -107 0
-36 -66 -108 0
-34 -67 -109 0
-35 -68 -110 0
-36 -69 -111 0
-34 -70 -112 0
-35 -71 -113 0
-36 -72 -114 0
-34 -73 -115 0
-35 -74 -116 0
-36 -75 -117 0
-34 -76 -118 0
-35 -77 -119 0
-36 -78 -120 0
-37 -1 -46 0
-38 -2 -47 0
-39 -3 -48 0
-37 -4 -49 0
-38 -5 -50 0
-39 -6 -51 0
-37 -7 -52 0
-38 -8 -53 0
-39 -9 -54 0
-37 -10 -55 0
-38 -11 -56 0
-39 -12 -57 0
-37 -13 -58 0
-38 -14 -59 0
-39 -15 -60 0
-37 -16 -61 0
-38 -17 -62 0
-39 -18 -63 0
-37 -19 -64 0
-38 -20 -65 0
-39 -21 -66 0
-37 -22 -67 0
-38 -23 -68 0
-39 -24 -69 0
-37 -25 -70 0
-38 -26 -71 0
-39 -27 -72 0
-37 -28 -73 0
-38 -29 -74 0
-39 -30 -75 0
-37 -31 -76 0
-38 -32 -77 0
-39 -33 -78 0
-37 -34 -79 0
-38 -35 -80 0
-39 -36 -81 0
-37 -37 -82 0
-38 -38 -83 0
-39 -39 -84 0
-37 -40 -85 0
-38 -41 -86 0
-39 -42 -87 0
-37 -43 -88 0
-38 -44 -89 0
-39 -45 -90 0
-37 -46 -91 0
-38 -47 -92 0
-39 -48 -93 0
-37 -49 -94 0
-38 -50 -95 0
-39 -51 -96 0
-37 -52 -97 0
-38 -53 -98 0
-39 -54 -99 0
-37 -55 -100 0
-38 -56 -101 0
-39 -57 -102 0
-37 -58 -103 0
-38 -59 -104 0
-39 -60 -105 0
-37 -61 -106 0
-38 -62 -107 0
-39 -63 -108 0
-37 -64 -109 0
-38 -65 -110 0
-39 -66 -111 0
-37 -67 -112 0
-38 -68 -113 0
-39 -69 -114 0
-37 -70 -115 0
-38 -71 -116 0
-39 -72 -117 0
-37 -73 -118 0
-38 -74 -119 0
-39 -75 -120 0
-40 -1 -49 0
-41 -2 -50 0
-42 -3 -51 0
-40 -4 -52 0
-41 -5 -53 0
-42 -6 -54 0
-40 -7 -55 0
-41 -8 -56 0
-42 -9 -57 0
-40 -10 -58 0
-41 -11 -59 0
-42 -12 -60 0
-40 -13 -61 0
-41 -14 -62 0
-42 -15 -63 0
-40 -16 -64 0
-41 -17 -65 0
-42 -18 -66 0
-40 -19 -67 0
-41 -20 -68 0
-42 -21 -69 0
-40 -22 -70 0
-41 -23 -71 0
-42 -24 -72 0
-40 -25 -73 0
-41 -26 -74 0
-42 -27 -75 0
-40 -28 -76 0
-41 -29 -77 0
-42 -30 -78 0
-40 -31 -79 0
-41 -32 -80 0
-42 -33 -81 0
-40 -34 -82 0
-41 -35 -83 0
-42 -36 -84 0
-40 -37 -85 0
-41 -38 -86 0
-42 -39 -87 0
-40 -40 -88 0
-41 -41 -89 0
-42 -42 -90 0
-40 -43 -91 0
-41 -44 -92 0
-42 -45 -93 0
-40 -46 -94 0
-41 -47 -95 0
-42 -48 -96 0
-40 -49 -97 0
-41 -50 -98 0
-42 -51 -99 0
-40 -52 -100 0
-41 -53 -101 0
-42 -54 -102 0
-40 -55 -103 0
-41 -56 -104 0
-42 -57 -105 0
-40 -58 -106 0
-41 -59 -107 0
-42 -60 -108 0
-40 -61 -109 0
-41 -62 -110 0
-42 -63 -111 0
-40 -64 -112 0
-41 -65 -113 0
-42 -66 -114 0
-40 -67 -115 0
-41 -68 -116 0
-42 -69 -117 0
-40 -70 -118 0
-41 -71 -119 0
-42 -72 -120 0
-43 -1 -52 0
-44 -2 -53 0
-45 -3 -54 0
-43 -4 -55 0
-44 -5 -56 0
-45 -6 -57 0
-43 -7 -58 0
-44 -8 -59 0
-45 -9 -60 0
-43 -10 -61 0
-44 -11 -62 0
-45 -12 -63 0
-43 -13 -64 0
-44 -14 -65 0
-45 -15 -66 0
-43 -16 -67 0
-44 -17 -68 0
-45 -18 -69 0
-43 -19 -70 0
-44 -20 -71 0
-45 -21 -72 0
-43 -22 -73 0
-44 -23 -74 0
-45 -24 -75 0
-43 -25 -76 0
-44 -26 -77 0
-45 -27 -78 0
-43 -28 -79 0
-44 -29 -80 0
-45 -30 -81 0
-43 -31 -82 0
-44 -32 -83 0
-45 -33 -84 0
-43 -34 -85 0
-44 -35 -86 0
-45 -36 -87 0
-43 -37 -88 0
-44 -38 -89 0
-45 -39 -90 0
-43 -40 -91 0
-44 -41 -92 0
-45 -42 -93 0
-43 -43 -94 0
-44 -44 -95 0
-45 -45 -96 0
-43 -46 -97 0
-44 -47 -98 0
-45 -48 -99 0
-43 -49 -100 0
-44 -50 -101 0
-45 -51 -102 0
-43 -52 -103 0
-44 -53 -104 0
-45 -54 -105 0
-43 -55 -106 0
-44 -56 -107 0
-45 -57 -108 0
-43 -58 -109 0
-44 -59 -110 0
-45 -60 -111 0
-43 -61 -112 0
-44 -62 -113 0
-45 -63 -114 0
-43 -64 -115 0
-44 -65 -116 0
-45 -66 -117 0
-43 -67 -118 0
-44 -68 -119 0
-45 -69 -120 0
-46 -1 -55 0
-47 -2 -56 0
-48 -3 -57 0
-46 -4 -58 0
-47 -5 -59 0
-48 -6 -60 0
-46 -7 -61 0
-47 -8 -62 0
-48 -9 -63 0
-46 -10 -64 0
-47 -11 -65 0
-48 -12 -66 0
-46 -13 -67 0
-47 -14 -68 0
-48 -15 -69 0
-46 -16 -70 0
-47 -17 -71 0
-48 -18 -72 0
-46 -19 -73 0
-47 -20 -74 0
-48 -21 -75 0
-46 -22 -76 0
-47 -23 -77 0
-48 -24 -78 0
-46 -25 -79 0
-47 -26 -80 0
-48 -27 -81 0
-46 -28 -82 0
-47 -29 -83 0
-48 -30 -84 0
-46 -31 -85 0
-47 -32 -86 0
-48 -33 -87 0
-46 -34 -88 0
-47 -35 -89 0
-48 -36 -90 0
-46 -37 -91 0
-47 -38 -92 0
-48 -39 -93 0
-46 -40 -94 0
-47 -41 -95 0
-48 -42 -96 0
-46 -43 -97 0
-47 -44 -98 0
-48 -45 -99 0
-46 -46 -100 0
-47 -47 -101 0
-48 -48 -102 0
-46 -49 -103 0
-47 -50 -104 0
-48 -51 -105 0
-46 -52 -106 0
-47 -53 -107 0
-48 -54 -108 0
-46 -55 -109 0
-47 -56 -110 0
-48 -57 -111 0
-46 -58 -112 0
-47 -59 -113 0
-48 -60 -114 0
-46 -61 -115 0
-47 -62 -116 0
-48 -63 -117 0
-46 -64 -118 0
-47 -65 -119 0
-48 -66 -120 0
-49 -1 -58 0
-50 -2 -59 0
-51 -3 -60 0
-49 -4 -61 0
-50 -5 -62 0
-51 -6 -63 0
-49 -7 -64 0
-50 -8 -65 0
-51 -9 -66 0
-49 -10 -67 0
-50 -11 -68 0
-51 -12 -69 0
-49 -13 -70 0
-50 -14 -71 0
-51 -15 -72 0
-49 -16 -73 0
-50 -17 -74 0
-51 -18 -75 0
-49 -19 -76 0
-50 -20 -77 0
-51 -21 -78 0
-49 -22 -79 0
-50 -23 -80 0
-51 -24 -81 0
-49 -25 -82 0
-50 -26 -83 0
-51 -27 -84 0
-49 -28 -85 0
-50 -29 -86 0
-51 -30 -87 0
-49 -31 -88 0
-50 -32 -89 0
-51 -33 -90 0
-49 -34 -91 0
-50 -35 -92 0
-51 -36 -93 0
-49 -37 -94 0
-50 -38 -95 0
-51 -39 -96 0
-49 -40 -97 0
-50 -41 -98 0
-51 -42 -99 0
-49 -43 -100 0
-50 -44 -101 0
-51 -45 -102 0
-49 -46 -103 0
-50 -47 -104 0
-51 -48 -105 0
-49 -49 -106 0
-50 -50 -107 0
-51 -51 -108 0
-49 -52 -109 0
-50 -53 -110 0
-51 -54 -111 0
-49 -55 -112 0
-50 -56 -113 0
-51 -57 -114 0
-49 -58 -115 0
-50 -59 -116 0
-51 -60 -117 0
-49 -61 -118 0
-50 -62 -119 0
-51 -63 -120 0
-52 -1 -61 0
-53 -2 -62 0
-54 -3 -63 0
-52 -4 -64 0
-53 -5 -65 0
-54 -6 -66 0
-52 -7 -67 0
-53 -8 -68 0
-54 -9 -69 0
-52 -10 -70 0
-53 -11 -71 0
-54 -12 -72 0
-52 -13 -73 0
-53 -14 -74 0
-54 -15 -75 0
-52 -16 -76 0
-53 -17 -77 0
-54 -18 -78 0
-52 -19 -79 0
-53 -20 -80 0
-54 -21 -81 0
-52 -22 -82 0
-53 -23 -83 0
-54 -24 -84 0
-52 -25 -85 0
-53 -26 -86 0
-54 -27 -87 0
-52 -28 -88 0
-53 -29 -89 0
-54 -30 -90 0
-52 -31 -91 0
-53 -32 -92 0
-54 -33 -93 0
-52 -34 -94 0
-53 -35 -95 0
-54 -36 -96 0
-52 -37 -97 0
-53 -38 -98 0
-54 -39 -99 0
-52 -40 -100 0
-53 -41 -101 0
-54 -42 -102 0
-52 -43 -103 0
-53 -44 -104 0
-54 -45 -105 0
-52 -46 -106 0
-53 -47 -107 0
-54 -48 -108 0
-52 -49 -109 0
-53 -50 -110 0
-54 -51 -111 0
-52 -52 -112 0
-53 -53 -113 0
-54 -54 -114 0
-52 -55 -115 0
-53 -56 -116 0
-54 -57 -117 0
-52 -58 -118 0
-53 -59 -119 0
-54 -60 -120 0
-55 -1 -64 0
-56 -2 -65 0
-57 -3 -66 0
-55 -4 -67 0
-56 -5 -68 0
-57 -6 -69 0
-55 -7 -70 0
-56 -8 -71 0
-57 -9 -72 0
-55 -10 -73 0
-56 -11 -74 0
-57 -12 -75 0
-55 -13 -76 0
-56 -14 -77 0
-57 -15 -78 0
-55 -16 -79 0
-56 -17 -80 0
-57 -18 -81 0
-55 -19 -82 0
-56 -20 -83 0
-57 -21 -84 0
-55 -22 -85 0
-56 -23 -86 0
-57 -24 -87 0
-55 -25 -88 0
-56 -26 -89 0
-57 -27 -90 0
-55 -28 -91 0
-56 -29 -92 0
-57 -30 -93 0
-55 -31 -94 0
-56 -32 -95 0
-57 -33 -96 0
-55 -34 -97 0
-56 -35 -98 0
-57 -36 -99 0
-55 -37 -100 0
-56 -38 -101 0
-57 -39 -102 0
-55 -40 -103 0
-56 -41 -104 0
-57 -42 -105 0
-55 -43 -106 0
-56 -44 -107 0
-57 -45 -108 0
-55 -46 -109 0
-56 -47 -110 0
-57 -48 -111 0
-55 -49 -112 0
-56 -50 -113 0
-57 -51 -114 0
-55 -52 -115 0
-56 -53 -116 0
-57 -54 -117 0
-55 -55 -118 0
-56 -56 -119 0
-57 -57 -120 0
-58 -1 -67 0
-59 -2 -68 0
-60 -3 -69 0
-58 -4 -70 0
-59 -5 -71 0
-60 -6 -72 0
-58 -7 -73 0
-59 -8 -74 0
-60 -9 -75 0
-58 -10 -76 0
-59 -11 -77 0
-60 -12 -78 0
-58 -13 -79 0
-59 -14 -80 0
-60 -15 -81 0
-58 -16 -82 0
-59 -17 -83 0
-60 -18 -84 0
-58 -19 -85 0
-59 -20 -86 0
-60 -21 -87 0
-58 -22 -88 0
-59 -23 -89 0
-60 -24 -90 0
-58 -25 -91 0
-59 -26 -92 0
-60 -27 -93 0
-58 -28 -94 0
-59 -29 -95 0
-60 -30 -96 0
-58 -31 -97 0
-59 -32 -98 0
-60 -33 -99 0
-58 -34 -100 0
-59 -35 -101 0
-60 -36 -102 0
-58 -37 -103 0
-59 -38 -104 0
-60 -39 -105 0
-58 -40 -106 0
-59 -41 -107 0
-60 -42 -108 0
-58 -43 -109 0
-59 -44 -110 0
-60 -45 -111 0
-58 -46 -112 0
-59 -47 -113 0
-60 -48 -114 0
-58 -49 -115 0
-59 -50 -116 0
-60 -51 -117 0
-58 -52 -118 0
-59 -53 -119 0
-60 -54 -120 0
-61 -1 -70 0
-62 -2 -71 0
-63 -3 -72 0
-61 -4 -73 0
-62 -5 -74 0
-63 -6 -75 0
-61 -7 -76 0
-62 -8 -77 0
-63 -9 -78 0
-61 -10 -79 0
-62 -11 -80 0
-63 -12 -81 0
-61 -13 -82 0
-62 -14 -83 0
-63 -15 -84 0
-61 -16 -85 0
-62 -17 -86 0
-63 -18 -87 0
-61 -19 -88 0
-62 -20 -89 0
-63 -21 -90 0
-61 -22 -91 0
-62 -23 -92 0
-63 -24 -93 0
-61 -25 -94 0
-62 -26 -95 0
-63 -27 -96 0
-61 -28 -97 0
-62 -29 -98 0
-63 -30 -99 0
-61 -31 -100 0
-62 -32 -101 0
-63 -33 -102 0
-61 -34 -103 0
-62 -35 -104 0
-63 -36 -105 0
-61 -37 -106 0
-62 -38 -107 0
-63 -39 -108 0
-61 -40 -109 0
-62 -41 -110 0
-63 -42 -111 0
-61 -43 -112 0
-62 -44 -113 0
-63 -45 -114 0
-61 -46 -115 0
-62 -47 -116 0
-63 -48 -117 0
-61 -49 -118 0
-62 -50 -119 0
-63 -51 -120 0
-64 -1 -73 0
-65 -2 -74 0
-66 -3 -75 0
-64 -4 -76 0
-65 -5 -77 0
-66 -6 -78 0
-64 -7 -79 0
-65 -8 -80 0
-66 -9 -81 0
-64 -10 -82 0
-65 -11 -83 0
-66 -12 -84 0
-64 -13 -85 0
-65 -14 -86 0
-66 -15 -87 0
-64 -16 -88 0
-65 -17 -89 0
-66 -18 -90 0
-64 -19 -91 0
-65 -20 -92 0
-66 -21 -93 0
-64 -22 -94 0
-65 -23 -95 0
-66 -24 -96 0
-64 -25 -97 0
-65 -26 -98 0
-66 -27 -99 0
-64 -28 -100 0
-65 -29 -101 0
-66 -30 -102 0
-64 -31 -103 0
-65 -32 -104 0
-66 -33 -105 0
-64 -34 -106 0
-65 -35 -107 0
-66 -36 -108 0
-64 -37 -109 0
-65 -38 -110 0
-66 -39 -111 0
-64 -40 -112 0
-65 -41 -113 0
-66 -42 -114 0
-64 -43 -115 0
-65 -44 -116 0
-66 -45 -117 0
-64 -46 -118 0
-65 -47 -119 0
-66 -48 -120 0
-67 -1 -76 0
-68 -2 -77 0
-69 -3 -78 0
-67 -4 -79 0
-68 -5 -80 0
-69 -6 -81 0
-67 -7 -82 0
-68 -8 -83 0
-69 -9 -84 0
-67 -10 -85 0
-68 -11 -86 0
-69 -12 -87 0
-67 -13 -88 0
-68 -14 -89 0
-69 -15 -90 0
-67 -16 -91 0
-68 -17 -92 0
-69 -18 -93 0
-67 -19 -94 0
-68 -20 -95 0
-69 -21 -96 0
-67 -22 -97 0
-68 -23 -98 0
-69 -24 -99 0
-67 -25 -100 0
-68 -26 -101 0
-69 -27 -102 0
-67 -28 -103 0
-68 -29 -104 0
-69 -30 -105 0
-67 -31 -106 0
-68 -32 -107 0
-69 -33 -108 0
-67 -34 -109 0
-68 -35 -110 0
-69 -36 -111 0
-67 -37 -112 0
-68 -38 -113 0
-69 -39 -114 0
-67 -40 -115 0
-68 -41 -116 0
-69 -42 -117 0
-67 -43 -118 0
-68 -44 -119 0
-69 -45 -120 0
-70 -1 -79 0
-71 -2 -80 0
-72 -3 -81 0
-70 -4 -82 0
-71 -5 -83 0
-72 -6 -84 0
-70 -7 -85 0
-71 -8 -86 0
-72 -9 -87 0
-70 -10 -88 0
-71 -11 -89 0
-72 -12 -90 0
-70 -13 -91 0
-71 -14 -92 0
-72 -15 -93 0
-70 -16 -94 0
-71 -17 -95 0
-72 -18 -96 0
-70 -19 -97 0
-71 -20 -98 0
-72 -21 -99 0
-70 -22 -100 0
-71 -23 -101 0
-72 -24 -102 0
-70 -25 -103 0
-71 -26 -104 0
-72 -27 -105 0
-70 -28 -106 0
-71 -29 -107 0
-72 -30 -108 0
-70 -31 -109 0
-71 -32 -110 0
-72 -33 -111 0
-70 -34 -112 0
-71 -35 -113 0
-72 -36 -114 0
-70 -37 -115 0
-71 -38 -116 0
-72 -39 -117 0
-70 -40 -118 0
-71 -41 -119 0
-72 -42 -120 0
-73 -1 -82 0
-74 -2 -83 0
-75 -3 -84 0
-73 -4 -85 0
-74 -5 -86 0
-75 -6 -87 0
-73 -7 -88 0
-74 -8 -89 0
-75 -9 -90 0
-73 -10 -91 0
-74 -11 -92 0
-75 -12 -93 0
-73 -13 -94 0
-74 -14 -95 0
-75 -15 -96 0
-73 -16 -97 0
-74 -17 -98 0
-75 -18 -99 0
-73 -19 -100 0
-74 -20 -101 0
-75 -21 -102 0
-73 -22 -103 0
-74 -23 -104 0
-75 -24 -105 0
-73 -25 -106 0
-74 -26 -107 0
-75 -27 -108 0
-73 -28 -109 0
-74 -29 -110 0
-75 -30 -111 0
-73 -31 -112 0
-74 -32 -113 0
-75 -33 -114 0
-73 -34 -115 0
-74 -35 -116 0
-75 -36 -117 0
-73 -37 -118 0
-74 -38 -119 0
-75 -39 -120 0
-76 -1 -85 0
-77 -2 -86 0
-78 -3 -87 0
-76 -4 -88 0
-77 -5 -89 0
-78 -6 -90 0
-76 -7 -91 0
-77 -8 -92 0
-78 -9 -93 0
-76 -10 -94 0
-77 -11 -95 0
-78 -12 -96 0
-76 -13 -97 0
-77 -14 -98 0
-78 -15 -99 0
-76 -16 -100 0
-77 -17 -101 0
-78 -18 -102 0
-76 -19 -103 0
-77 -20 -104 0
-78 -21 -105 0
-76 -22 -106 0
-77 -23 -107 0
-78 -24 -108 0
-76 -25 -109 0
-77 -26 -110 0
-78 -27 -111 0
-76 -28 -112 0
-77 -29 -113 0
-78 -30 -114 0
-76 -31 -115 0
-77 -32 -116 0
-78 -33 -117 0
-76 -34 -118 0
-77 -35 -119 0
-78 -36 -120 0
-79 -1 -88 0
-80 -2 -89 0
-81 -3 -90 0
-79 -4 -91 0
-80 -5 -92 0
-81 -6 -93 0
-79 -7 -94 0
-80 -8 -95 0
-81 -9 -96 0
-79 -10 -97 0
-80 -11 -98 0
-81 -12 -99 0
-79 -13 -100 0
-80 -14 -101 0
-81 -15 -102 0
-79 -16 -103 0
-80 -17 -104 0
-81 -18 -105 0
-79 -19 -106 0
-80 -20 -107 0
-81 -21 -108 0
-79 -22 -109 0
-80 -23 -110 0
-81 -24 -111 0
-79 -25 -112 0
-80 -26 -113 0
-81 -27 -114 0
-79 -28 -115 0
-80 -29 -116 0
-81 -30 -117 0
-79 -31 -118 0
-80 -32 -119 0
-81 -33 -120 0
-82 -1 -91 0
-83 -2 -92 0
-84 -3 -93 0
-82 -4 -94 0
-83 -5 -95 0
-84 -6 -96 0
-82 -7 -97 0
-83 -8 -98 0
-84 -9 -99 0
-82 -10 -100 0
-83 -11 -101 0
-84 -12 -102 0
-82 -13 -103 0
-83 -14 -104 0
-84 -15 -105 0
-82 -16 -106 0
-83 -17 -107 0
-84 -18 -108 0
-82 -19 -109 0
-83 -20 -110 0
-84 -21 -111 0
-82 -22 -112 0
-83 -23 -113 0
-84 -24 -114 0
-82 -25 -115 0
-83 -26 -116 0
-84 -27 -117 0
-82 -28 -118 0
-83 -29 -119 0
-84 -30 -120 0
-85 -1 -94 0
-86 -2 -95 0
-87 -3 -96 0
-85 -4 -97 0
-86 -5 -98 0
-87 -6 -99 0
-85 -7 -100 0
-86 -8 -101 0
-87 -9 -102 0
-85 -10 -103 0
-86 -11 -104 0
-87 -12 -105 0
-85 -13 -106 0
-86 -14 -107 0
-87 -15 -108 0
-85 -16 -109 0
-86 -17 -110 0
-87 -18 -111 0
-85 -19 -112 0
-86 -20 -113 0
-87 -21 -114 0
-85 -22 -115 0
-86 -23 -116 0
-87 -24 -117 0
-85 -25 -118 0
-86 -26 -119 0
-87 -27 -120 0
-88 -1 -97 0
-89 -2 -98 0
-90 -3 -99 0
-88 -4 -100 0
-89 -5 -101 0
-90 -6 -102 0
-88 -7 -103 0
-89 -8 -104 0
-90 -9 -105 0
-88 -10 -106 0
-89 -11 -107 0
-90 -12 -108 0
-88 -13 -109 0
-89 -14 -110 0
-90 -15 -111 0
-88 -16 -112 0
-89 -17 -113 0
-90 -18 -114 0
-88 -19 -115 0
-89 -20 -116 0
-90 -21 -117 0
-88 -22 -118 0
-89 -23 -119 0
-90 -24 -120 0
-91 -1 -100 0
-92 -2 -101 0
-93 -3 -102 0
-91 -4 -103 0
-92 -5 -104 0
-93 -6 -105 0
-91 -7 -106 0
-92 -8 -107 0
-93 -9 -108 0
-91 -10 -109 0
-92 -11 -110 0
-93 -12 -111 0
-91 -13 -112 0
-92 -14 -113 0
-93 -15 -114 0
-91 -16 -115 0
-92 -17 -116 0
-93 -18 -117 0
-91 -19 -118 0
-92 -20 -119 0
-93 -21 -120 0
-94 -1 -103 0
-95 -2 -104 0
-96 -3 -105 0
-94 -4 -106 0
-95 -5 -107 0
-96 -6 -108 0
-94 -7 -109 0
-95 -8 -110 0
-96 -9 -111 0
-94 -10 -112 0
-95 -11 -113 0
-96 -12 -114 0
-94 -13 -115 0
-95 -14 -116 0
-96 -15 -117 0
-94 -16 -118 0
-95 -17 -119 0
-96 -18 -120 0
-97 -1 -106 0
-98 -2 -107 0
-99 -3 -108 0
-97 -4 -109 0
-98 -5 -110 0
-99 -6 -111 0
-97 -7 -112 0
-98 -8 -113 0
-99 -9 -114 0
-97 -10 -115 0
-98 -11 -116 0
-99 -12 -117 0
-97 -13 -118 0
-98 -14 -119 0
-99 -15 -120 0
-100 -1 -109 0
-101 -2 -110 0
-102 -3 -111 0
-100 -4 -112 0
-101 -5 -113 0
-102 -6 -114 0
-100 -7 -115 0
-101 -8 -116 0
-102 -9 -117 0
-100 -10 -118 0
-101 -11 -119 0
-102 -12 -120 0
-103 -1 -112 0
-104 -2 -113 0
-105 -3 -114 0
-103 -4 -115 0
-104 -5 -116 0
-105 -6 -117 0
-103 -7 -118 0
-104 -8 -119 0
-105 -9 -120 0
-106 -1 -115 0
-107 -2 -116 0
-108 -3 -117 0
-106 -4 -118 0
-107 -5 -119 0
-108 -6 -120 0
-109 -1 -118 0
-110 -2 -119 0
-111 -3 -120 0
